561328
45,63,9,71,48,77,47,8,78,37,49,81,88,14,65,17,96,87,66,59,12,75,51,97,105,84,7,41,46,33,43,72,39,22,25,93,21,98,18,36,106,50,26,23,30,52,83,100,56,73,35,104,67,60,3,11,1,38,85,4,79,103,2,40,99,82,13,6,31,90,76,15,57,62,86,70,58,24,94,44,10,34,55,5,20,29,92,89,42,16,64,54,95,61,68,69,27,28,32,101,102,80,74,91,19,53